n = 10; 

m=14; 


20	23	31	18	32	33	16	36	35	37
7	17	6	19	21	38	34	10	20	19
8	26	14	15	29	29	35	16	2	7
2	30	34	29	11	19	2	11	16	1
19	11	33	31	33	3	30	35	11	25
21	2	14	34	35	36	3	39	10	17
21	24	26	14	4	5	12	15	19	11
31	19	20	27	13	11	4	18	3	12
17	30	33	33	21	20	19	25	15	18
23	21	37	38	30	17	27	33	4	11
28	31	9	37	27	18	12	6	7	1
2	2	3	6	3	15	37	15	22	35
38	28	34	12	12	34	28	16	8	29
21	24	26	14	4	5	12	15	19	11
 
 
 			
